Route #1: 1 5 46 30 37 22 29 48 37 6 28 1 
Route #2: 1 27 13 40 26 40 11 39 8 9 1 
Route #3: 1 31 49 37 21 37 38 16 14 9 1 
Route #4: 1 45 33 40 32 40 19 10 40 41 1 
Route #5: 1 18 4 50 24 25 24 2 34 7 1 
Route #6: 1 3 24 44 43 42 24 23 24 17 1 
Route #7: 1 47 9 12 36 9 20 15 9 35 1 
Cost 835.0
